c WARNING: for repeatability, setting FPU to use double precision
d VARIABLES            121348       
d CONSTRAINTS          540114       
c ============================[ Problem Statistics ]=============================
c |                                                                             |
c |  Number of variables:        121348                                         |
c |  Number of clauses:          540114                                         |
c |  Parse time:                   0.08 s                                       |
c |                                                                             |
c ============================[ Search Statistics ]==============================
c | Conflicts |          ORIGINAL         |          LEARNT          | Progress |
c |           |    Vars  Clauses Literals |    Limit  Clauses Lit/Cl |          |
c ===============================================================================
c |       100 |  103071   488030  1183944 |   178944      100     16 | 15.062 % |
c |       250 |  103071   488030  1183944 |   196838      250     54 | 15.062 % |
c |       475 |  103071   488030  1183944 |   216522      475     52 | 15.062 % |
c |       812 |  103071   488030  1183944 |   238174      812     74 | 15.062 % |
c |      1318 |  103071   488030  1183944 |   261992     1318     85 | 15.062 % |
c |      2077 |  103071   488030  1183944 |   288191     2077     85 | 15.062 % |
c |      3216 |  103071   488030  1183944 |   317010     3216     92 | 15.062 % |
c |      4924 |  103071   488030  1183944 |   348711     4924     87 | 15.062 % |
c |      7486 |  103071   488030  1183944 |   383583     7486    140 | 15.062 % |
c |     11330 |  103071   488030  1183944 |   421941    11330    159 | 15.062 % |
c |     17096 |  103071   488030  1183944 |   464135    17096    133 | 15.062 % |
c |     25745 |  103071   488030  1183944 |   510549    25745    146 | 15.062 % |
c |     38719 |  103051   487914  1183664 |   561603    38690    173 | 15.078 % |
c |     58180 |  103045   487839  1183481 |   617764    58014    158 | 15.083 % |
c ===============================================================================
c restarts              : 221
c conflicts             : 71555          (2507 /sec)
c decisions             : 384476         (0.00 % random) (13473 /sec)
c propagations          : 141794365      (4968654 /sec)
c conflict literals     : 10074138       (18.26 % deleted)
d RESTARTS             221
d FAILURES             71555        
d NODES                384476       
d BACKTRACKS           384476       
d PROPAGATIONS         141794365    
d NOGOODSIZE           140.79 
d MEMORY               86.00 
d TIME                 28.5378 

s UNSATISFIABLE
